c preprocessed version of graph01, 82 vertices, 323 edges
p td 82 323
0 1
0 6
0 3
0 4
0 69
1 2
1 6
62 1
2 3
2 69
4 3
3 38
4 5
61 4
64 4
6 5
20 5
6 7
7 8
7 40
7 29
7 41
7 39
7 30
62 7
60 7
46 7
9 8
8 40
8 30
8 41
8 45
8 29
8 39
60 8
9 10
9 35
9 71
51 9
11 10
31 10
37 10
69 10
35 10
39 10
59 10
68 10
11 12
11 16
11 36
11 70
12 13
48 12
64 12
14 13
41 13
43 13
48 13
62 13
60 13
14 15
14 19
14 25
14 72
16 15
15 17
18 15
15 72
16 17
16 55
16 21
61 16
58 16
18 17
19 18
20 18
21 18
20 19
19 72
20 21
21 22
21 72
34 21
23 22
26 22
22 45
28 22
24 23
23 44
26 23
24 25
32 24
24 26
24 45
63 24
67 24
26 25
54 25
25 44
48 25
57 25
66 25
68 25
27 26
28 27
27 46
27 60
64 27
65 27
27 66
27 63
27 67
27 68
28 29
28 34
28 50
28 52
28 51
28 58
28 57
28 45
28 64
28 65
28 66
28 63
67 28
46 28
68 28
29 30
40 29
29 41
29 39
50 29
60 29
68 29
31 30
40 30
55 30
53 30
41 30
39 30
60 30
32 31
31 70
33 31
61 31
31 49
63 31
33 32
61 32
49 32
34 33
33 49
60 33
33 61
34 35
34 50
51 34
34 58
34 52
57 34
36 35
37 36
66 36
37 38
37 70
58 37
38 39
69 38
40 39
41 39
60 39
40 41
40 44
60 40
65 40
67 40
42 41
60 41
46 41
42 43
42 53
57 42
42 56
44 43
55 43
54 43
53 43
56 43
57 43
45 44
63 44
46 45
46 47
46 60
64 46
65 46
66 46
63 46
67 46
46 68
48 47
47 55
47 54
47 56
62 47
52 47
57 47
49 48
48 59
48 62
63 48
50 49
60 49
61 49
51 50
52 50
58 50
50 57
51 52
51 59
51 58
57 51
52 53
52 58
52 57
54 53
54 55
56 54
57 56
58 57
64 63
65 63
66 63
63 67
63 68
64 65
64 66
64 67
64 68
65 66
65 67
65 68
66 67
66 68
67 68
71 70
73 74
73 75
73 76
73 79
73 80
73 0
73 12
73 32
73 48
73 13
73 59
73 33
73 77
73 78
74 1
74 2
74 75
74 76
74 78
74 79
74 80
74 24
74 77
75 5
75 80
75 76
75 79
75 45
75 77
75 78
76 12
76 80
76 71
76 79
76 77
76 78
77 79
77 80
77 11
77 70
77 81
77 78
78 81
78 79
78 80
78 8
78 12
78 19
78 26
78 21
78 59
78 62
78 64
78 65
79 81
79 80
79 40
79 64
80 81
80 17
80 10
80 72
81 73
81 74
81 75
81 76
81 7
81 8
81 9
81 29
81 30
81 41
81 40
81 45
81 39
81 60
